27 3
4 3 6
0 0 0 0 25 2 3 4 5 6 7 8 9 10 11 12 13 14 15 16 17 18 19 20 21 22 23 24 25 26
1 2 0 2 2 27 19
4 2 1 0 4 27 24 17 10
3 2 1 2 4 27 21 23 19
2 1 1 0 2 27 11
3 0 0 2 5 27 21 22 10 11
5 2 0 1 2 27 18
5 1 1 3 5 27 20 24 20 22
4 0 1 0 5 27 14 13 19 26
1 2 1 2 3 27 11 17
1 0 0 0 3 27 16 19
5 1 0 1 4 27 26 26 19
5 2 0 2 3 27 19 15
5 0 0 2 2 27 17
3 1 1 2 1 27
1 1 1 2 3 27 24 20
5 1 0 3 4 27 20 26 22
2 2 1 3 2 27 22
4 0 1 3 2 27 22
3 2 0 3 2 27 24
3 0 1 1 5 27 24 23 24 23
5 2 1 2 3 27 24 26
5 1 1 3 1 27
1 1 1 0 1 27
3 2 0 1 1 27
4 0 1 1 1 27
0 0 0 0 0
